r = [
0,27,90,73,94,70,96,154,172,159,163,80,123,138,79,173,147,153,149,115,164,39,59,106,44,113,0
];
p = [
0,28,6,27,28,2,20,1,12,4,19,11,2,8,19,21,22,20,11,27,12,3,10,1,5,28,0
];
e = [
0,6,4,12,6,7,19,10,11,19,10,3,19,10,10,9,20,19,17,10,15,4,10,12,4,13,0
];
d = [
0,186,273,231,256,254,272,328,358,330,336,269,287,312,247,338,315,313,306,305,328,219,217,268,205,284,359
];
d_bar = [
0,189,274,234,259,255,274,329,359,331,338,270,288,313,249,340,317,315,307,308,329,220,218,269,206,287,359
];
w = [
0,2,4,4,2,7,9.5,10,11,19,5,3,19,10,5,4.5,10,9.5,17,3.333333333,15,4,10,12,4,4.333333333,0
];
